Welcome to the CBC MILP Solver 
Version: 2.10.12 
Build Date: Aug 20 2024 

command line - /opt/homebrew/bin/cbc computational_data/real_data/lp/iris_trial_007_margin.lp seconds 10.0 solve solu computational_data/real_data/solutions/iris_trial_007_margin.sol (default strategy 1)
 CoinLpIO::readLp(): Maximization problem reformulated as minimization
Coin0009I Switching back to maximization to get correct duals etc
seconds was changed from 1e+100 to 10
Continuous objective value is 29.8966 - 0.00 seconds
Cgl0003I 0 fixed, 0 tightened bounds, 84 strengthened rows, 8 substitutions
Cgl0003I 0 fixed, 0 tightened bounds, 76 strengthened rows, 2 substitutions
Cgl0003I 0 fixed, 0 tightened bounds, 72 strengthened rows, 0 substitutions
Cgl0003I 0 fixed, 0 tightened bounds, 68 strengthened rows, 0 substitutions
Cgl0003I 0 fixed, 0 tightened bounds, 64 strengthened rows, 0 substitutions
Cgl0003I 0 fixed, 0 tightened bounds, 54 strengthened rows, 0 substitutions
Cgl0003I 0 fixed, 0 tightened bounds, 26 strengthened rows, 0 substitutions
Cgl0003I 0 fixed, 0 tightened bounds, 18 strengthened rows, 0 substitutions
Cgl0003I 0 fixed, 0 tightened bounds, 15 strengthened rows, 0 substitutions
Cgl0004I processed model has 72 rows, 22 columns (22 integer (22 of which binary)) and 651 elements
Cbc0038I Initial state - 1 integers unsatisfied sum - 0.111111
Cbc0038I Pass   1: suminf.    0.11111 (1) obj. 29.8966 iterations 1
Cbc0038I Solution found of 29.0077
Cbc0038I Before mini branch and bound, 21 integers at bound fixed and 0 continuous
Cbc0038I Full problem 72 rows 22 columns, reduced to 0 rows 0 columns
Cbc0038I Mini branch and bound did not improve solution (0.01 seconds)
Cbc0038I Round again with cutoff of 29.0966
Cbc0038I Reduced cost fixing fixed 1 variables on major pass 2
Cbc0038I Pass   2: suminf.    0.11111 (1) obj. 29.8966 iterations 0
Cbc0038I Pass   3: suminf.    0.08890 (1) obj. 29.0966 iterations 1
Cbc0038I Pass   4: suminf.    0.08890 (1) obj. 29.0966 iterations 4
Cbc0038I Pass   5: suminf.    0.08890 (1) obj. 29.0966 iterations 2
Cbc0038I Pass   6: suminf.    0.11111 (1) obj. 29.8966 iterations 1
Cbc0038I Pass   7: suminf.    0.11111 (1) obj. 29.8966 iterations 5
Cbc0038I Pass   8: suminf.    0.11111 (1) obj. 29.8966 iterations 2
Cbc0038I Pass   9: suminf.    0.11111 (1) obj. 29.8966 iterations 5
Cbc0038I Pass  10: suminf.    0.11111 (1) obj. 29.8966 iterations 0
Cbc0038I Pass  11: suminf.    0.08890 (1) obj. 29.0966 iterations 1
Cbc0038I Pass  12: suminf.    0.08890 (1) obj. 29.0966 iterations 7
Cbc0038I Pass  13: suminf.    0.08890 (1) obj. 29.0966 iterations 3
Cbc0038I Pass  14: suminf.    0.11111 (1) obj. 29.8966 iterations 1
Cbc0038I Pass  15: suminf.    0.11111 (1) obj. 29.8966 iterations 2
Cbc0038I Pass  16: suminf.    0.11111 (1) obj. 29.8966 iterations 2
Cbc0038I Pass  17: suminf.    0.11111 (1) obj. 29.8966 iterations 7
Cbc0038I Pass  18: suminf.    0.11111 (1) obj. 29.8966 iterations 1
Cbc0038I Pass  19: suminf.    0.08890 (1) obj. 29.0966 iterations 1
Cbc0038I Pass  20: suminf.    0.08890 (1) obj. 29.0966 iterations 7
Cbc0038I Pass  21: suminf.    0.08890 (1) obj. 29.0966 iterations 2
Cbc0038I Pass  22: suminf.    0.11111 (1) obj. 29.8966 iterations 1
Cbc0038I Pass  23: suminf.    0.11111 (1) obj. 29.8966 iterations 5
Cbc0038I Pass  24: suminf.    0.11111 (1) obj. 29.8966 iterations 2
Cbc0038I Pass  25: suminf.    0.08890 (1) obj. 29.0966 iterations 1
Cbc0038I Pass  26: suminf.    0.08890 (1) obj. 29.0966 iterations 4
Cbc0038I Pass  27: suminf.    0.08890 (1) obj. 29.0966 iterations 3
Cbc0038I Pass  28: suminf.    0.08890 (1) obj. 29.0966 iterations 5
Cbc0038I Pass  29: suminf.    0.08890 (1) obj. 29.0966 iterations 2
Cbc0038I Pass  30: suminf.    0.08890 (1) obj. 29.0966 iterations 3
Cbc0038I Pass  31: suminf.    0.08890 (1) obj. 29.0966 iterations 1
Cbc0038I No solution found this major pass
Cbc0038I Before mini branch and bound, 12 integers at bound fixed and 0 continuous
Cbc0038I Full problem 72 rows 22 columns, reduced to 25 rows 10 columns
Cbc0038I Mini branch and bound did not improve solution (0.01 seconds)
Cbc0038I After 0.01 seconds - Feasibility pump exiting with objective of 29.0077 - took 0.00 seconds
Cbc0012I Integer solution of 29.007701 found by feasibility pump after 0 iterations and 0 nodes (0.01 seconds)
Cbc0031I 1 added rows had average density of 21
Cbc0013I At root node, 4 cuts changed objective from 29.89659 to 29.007701 in 1 passes
Cbc0014I Cut generator 0 (Probing) - 0 row cuts average 0.0 elements, 0 column cuts (0 active)  in 0.000 seconds - new frequency is -100
Cbc0014I Cut generator 1 (Gomory) - 1 row cuts average 21.0 elements, 0 column cuts (0 active)  in 0.000 seconds - new frequency is 1
Cbc0014I Cut generator 2 (Knapsack) - 1 row cuts average 5.0 elements, 0 column cuts (0 active)  in 0.000 seconds - new frequency is 1
Cbc0014I Cut generator 3 (Clique) - 0 row cuts average 0.0 elements, 0 column cuts (0 active)  in 0.000 seconds - new frequency is -100
Cbc0014I Cut generator 4 (MixedIntegerRounding2) - 0 row cuts average 0.0 elements, 0 column cuts (0 active)  in 0.000 seconds - new frequency is -100
Cbc0014I Cut generator 5 (FlowCover) - 0 row cuts average 0.0 elements, 0 column cuts (0 active)  in 0.000 seconds - new frequency is -100
Cbc0014I Cut generator 6 (TwoMirCuts) - 1 row cuts average 21.0 elements, 0 column cuts (0 active)  in 0.000 seconds - new frequency is -100
Cbc0014I Cut generator 7 (ZeroHalf) - 1 row cuts average 3.0 elements, 0 column cuts (0 active)  in 0.000 seconds - new frequency is -100
Cbc0001I Search completed - best objective 29.007701, took 0 iterations and 0 nodes (0.01 seconds)
Cbc0035I Maximum depth 0, 1 variables fixed on reduced cost
Cuts at root node changed objective from 29.8966 to 29.0077
Probing was tried 1 times and created 0 cuts of which 0 were active after adding rounds of cuts (0.000 seconds)
Gomory was tried 1 times and created 1 cuts of which 0 were active after adding rounds of cuts (0.000 seconds)
Knapsack was tried 1 times and created 1 cuts of which 0 were active after adding rounds of cuts (0.000 seconds)
Clique was tried 1 times and created 0 cuts of which 0 were active after adding rounds of cuts (0.000 seconds)
MixedIntegerRounding2 was tried 1 times and created 0 cuts of which 0 were active after adding rounds of cuts (0.000 seconds)
FlowCover was tried 1 times and created 0 cuts of which 0 were active after adding rounds of cuts (0.000 seconds)
TwoMirCuts was tried 1 times and created 1 cuts of which 0 were active after adding rounds of cuts (0.000 seconds)
ZeroHalf was tried 1 times and created 1 cuts of which 0 were active after adding rounds of cuts (0.000 seconds)

Result - Optimal solution found

Objective value:                29.00770100
Enumerated nodes:               0
Total iterations:               0
Time (CPU seconds):             0.01
Time (Wallclock seconds):       0.01

Total time (CPU seconds):       0.01   (Wallclock seconds):       0.01

